<instance format="XCSP3" type="CSP">
  <variables>
    <var id="x0"> 2 9 10 13 </var>
    <var id="x1"> 0 2 7 </var>
    <var id="x2"> 4 7 9 10 </var>
    <var id="x3"> 7 10 </var>
    <var id="x4"> 0 2 4 9 </var>
    <var id="x5"> 0 4 9 10 13 </var>
    <var id="x6"> 0 2 10 </var>
    <var id="x7"> 2 9 10 12 14 </var>
    <var id="x8"> 2 6 8 12 14 </var>
    <var id="x9"> 2 9 14 </var>
    <var id="x10"> 2 14 </var>
    <var id="x11"> 2 6 9 </var>
    <var id="x12"> 6 12 14 </var>
    <var id="x13"> 6 8..10 12 </var>
    <var id="x14"> 3 8 10 14 </var>
    <var id="x15"> 8 12 </var>
    <var id="x16"> 8 10 12 14 </var>
    <var id="x17"> 0 9 14 </var>
    <var id="x18"> 0 14 </var>
    <var id="x19"> 0 9 </var>
    <var id="x20"> 8..10 14 </var>
    <var id="x21"> 2 4 6 14 </var>
    <var id="x22"> 2 6 7 12 14 </var>
    <var id="x23"> 6 7 12 14 </var>
    <var id="x24"> 2 4 11 14 </var>
    <var id="x25"> 6 11 12 </var>
    <var id="x26"> 2 14 </var>
    <var id="x27"> 4 7 11 14 </var>
    <var id="x28"> 4 6 8 14 </var>
    <var id="x29"> 5 6 8 12 </var>
    <var id="x30"> 1 4 5 14 </var>
    <var id="x31"> 4 8 12 14 </var>
    <var id="x32"> 4..6 12 14 </var>
    <var id="x33"> 1 5 8 14 </var>
    <var id="x34"> 4 8 14 </var>
    <var id="x35"> 7 9 </var>
    <var id="x36"> 0 2 5 9 </var>
    <var id="x37"> 2 8 </var>
    <var id="x38"> 0 6 9 </var>
    <var id="x39"> 6 8 9 </var>
    <var id="x40"> 0 2 5 8 </var>
    <var id="x41"> 7..9 </var>
    <var id="x42"> 12 14 </var>
    <var id="x43"> 6 8 14 </var>
    <var id="x44"> 0 6..8 12 14 </var>
    <var id="x45"> 1 7 14 </var>
    <var id="x46"> 6..8 12 </var>
    <var id="x47"> 0 1 7 14 </var>
    <var id="x48"> 0 1 8 14 </var>
    <var id="x49"> 3 10 </var>
    <var id="x50"> 8 10 </var>
    <var id="x51"> 0 4 5 11 </var>
    <var id="x52"> 0 4 10 </var>
    <var id="x53"> 0 </var>
    <var id="x54"> 0 4 5 </var>
    <var id="x55"> 0 5 8 10 </var>
    <var id="x56"> 0 2 6 14 </var>
    <var id="x57"> 3 14 </var>
    <var id="x58"> 6 14 </var>
    <var id="x59"> 0 2 5 14 </var>
    <var id="x60"> 2 3 14 </var>
    <var id="x61"> 0 6 13 14 </var>
    <var id="x62"> 0 5 6 14 </var>
    <var id="x63"> 2 3 10 14 </var>
    <var id="x64"> 2 3 8 10 14 </var>
    <var id="x65"> 1 2 7 14 </var>
    <var as="x64" id="x66"/>
    <var id="x67"> 1 2 7 </var>
    <var id="x68"> 3 8 10 </var>
    <var id="x69"> 7 8 10 14 </var>
    <var id="x70"> 2 4 8 10 14 </var>
    <var id="x71"> 2 7 8 </var>
    <var id="x72"> 1 7 8 10 14 </var>
    <var id="x73"> 1 2 4 7 14 </var>
    <var as="x70" id="x74"/>
    <var id="x75"> 1 2 7 </var>
    <var id="x76"> 4 7 14 </var>
    <var id="x77"> 2 3 10 14 </var>
    <var id="x78"> 0 2 6 7 14 </var>
    <var id="x79"> 6 7 10 14 </var>
    <var id="x80"> 2 3 10 14 </var>
    <var id="x81"> 0 6 10 14 </var>
    <var id="x82"> 0 6 7 14 </var>
    <var id="x83"> 3 6 10 </var>
    <var id="x84"> 2 12 14 </var>
    <var id="x85"> 4 9 14 </var>
    <var id="x86"> 2 11 12 </var>
    <var id="x87"> 2 9 13 </var>
    <var id="x88"> 9 11 12 </var>
    <var id="x89"> 2 14 </var>
    <var id="x90"> 4 9 11 14 </var>
    <var id="x91"> 4 10 13 14 </var>
    <var id="x92"> 1 4 9 10 14 </var>
    <var id="x93"> 5 </var>
    <var id="x94"> 4 10 14 </var>
    <var id="x95"> 4 9 10 13 14 </var>
    <var id="x96"> 9 10 </var>
    <var id="x97"> 4 9 10 14 </var>
    <var id="x98"> 9 10 12 14 </var>
    <var id="x99"> 4 6 10 14 </var>
    <var id="x100"> 4 7 9 10 14 </var>
    <var id="x101"> 6 7 11 12 </var>
    <var id="x102"> 4 7 14 </var>
    <var id="x103"> 4 6 9 10 14 </var>
    <var id="x104"> 6 7 9 </var>
    <var id="x105"> 4 6 7 12 14 </var>
  </variables>
  <constraints>
    <group>
      <allDifferent> %... </allDifferent>
      <args> x0 x1 x2 x3 x4 x5 x6 </args>
      <args> x7 x8 x9 x10 x11 x12 x13 </args>
      <args> x14 x15 x16 x17 x18 x19 x20 </args>
      <args> x21 x22 x23 x24 x25 x26 x27 </args>
      <args> x28 x29 x30 x31 x32 x33 x34 </args>
      <args> x35 x36 x37 x38 x39 x40 x41 </args>
      <args> x42 x43 x44 x45 x46 x47 x48 </args>
      <args> x49 x50 x51 x52 x53 x54 x55 </args>
      <args> x56 x57 x58 x59 x60 x61 x62 </args>
      <args> x63 x64 x65 x66 x67 x68 x69 </args>
      <args> x70 x71 x72 x73 x74 x75 x76 </args>
      <args> x77 x78 x79 x80 x81 x82 x83 </args>
      <args> x84 x85 x86 x87 x88 x89 x90 </args>
      <args> x91 x92 x93 x94 x95 x96 x97 </args>
      <args> x98 x99 x100 x101 x102 x103 x104 x105 </args>
      <args> x0 x7 x42 x49 x63 x77 x98 </args>
      <args> x14 x21 x28 x43 x64 x70 x91 x99 </args>
      <args> x1 x8 x22 x44 x56 x78 x84 </args>
      <args> x2 x35 x45 x57 x85 x92 x100 </args>
      <args> x15 x29 x46 x71 x86 x93 x101 </args>
      <args> x3 x16 x23 x50 x58 x72 x79 </args>
      <args> x4 x9 x17 x24 x36 x51 x59 </args>
      <args> x10 x18 x30 x47 x65 x73 x102 </args>
      <args> x31 x37 x60 x66 x74 x80 x94 </args>
      <args> x5 x38 x52 x61 x81 x95 x103 </args>
      <args> x11 x19 x53 x67 x75 x87 x104 </args>
      <args> x12 x32 x54 x62 x76 x82 x105 </args>
      <args> x13 x25 x39 x68 x83 x88 x96 </args>
      <args> x6 x26 x33 x40 x48 x55 x89 </args>
      <args> x20 x27 x34 x41 x69 x90 x97 </args>
    </group>
  </constraints>
</instance>

